param set_len = 34;
param target_sum = 7383359067;
param values := [1] 323778013 [2] 1037354651 [3] 659482982 [4] 936534593 [5] 970849618 [6] 360641628 [7] 485190661 [8] 530138740 [9] 387419057 [10] 178712116 [11] 30595379 [12] 494079714 [13] 170059889 [14] 710555843 [15] 173676500 [16] 771664361 [17] 946892283 [18] 387109385 [19] 54730716 [20] 906132245 [21] 322482529 [22] 980485682 [23] 924407121 [24] 614552557 [25] 347521940 [26] 341220236 [27] 873665475 [28] 484179630 [29] 780165959 [30] 515990577 [31] 558653952 [32] 401063191 [33] 741129351 [34] 137388219 ;
